c colouring generated by benchmark framework
p edge 28 378
v 1 14
v 2 27
v 3 26
v 4 25
v 5 24
v 6 23
v 7 22
v 8 21
v 9 20
v 10 19
v 11 18
v 12 17
v 13 16
v 14 15
v 15 0
v 16 13
v 17 12
v 18 11
v 19 10
v 20 9
v 21 8
v 22 7
v 23 6
v 24 5
v 25 4
v 26 3
v 27 2
v 28 1
